c
c
c
c
c
8 36
0 0 -1
0 1 24
0 2 11
0 3 13
0 4 5
0 5 15
0 6 12
0 7 23
1 1 -1
1 2 1
1 3 2
1 4 20
1 5 18
1 6 22
1 7 1
2 2 -1
2 3 6
2 4 21
2 5 27
2 6 13
2 7 29
3 3 -1
3 4 7
3 5 19
3 6 27
3 7 29
4 4 -1
4 5 24
4 6 14
4 7 3
5 5 -1
5 6 4
5 7 29
6 6 -1
6 7 2
7 7 -1
